c b=12,c=1023
p cnf 34 410
1 3 4 5 6 7 8 9 10 11 12 -24 0
1 2 4 5 6 7 8 9 10 11 12 -25 0
1 2 3 5 6 7 8 9 10 11 12 -26 0
1 2 3 4 6 7 8 9 10 11 12 -27 0
1 2 3 4 5 7 8 9 10 11 12 -28 0
1 2 3 4 5 6 8 9 10 11 12 -29 0
1 2 3 4 5 6 7 9 10 11 12 -30 0
1 2 3 4 5 6 7 8 10 11 12 -31 0
1 2 3 4 5 6 7 8 9 11 12 -32 0
2 3 4 5 6 7 8 9 10 12 -33 0
1 3 4 5 6 7 8 9 10 11 -12 24 0
1 3 -12 25 0
1 3 4 -12 26 0
1 3 4 5 -12 27 0
1 3 4 5 6 -12 28 0
1 3 4 5 6 7 -12 29 0
1 3 4 5 6 7 8 -12 30 0
1 3 4 5 6 7 8 9 -12 31 0
1 3 4 5 6 7 8 9 10 -12 32 0
1 3 4 5 6 7 8 9 10 11 -12 33 0
2 3 4 5 6 7 8 9 10 11 -23 0
1 3 4 5 6 7 8 9 10 11 -34 0
2 -11 12 24 0
12 -34 0
2 -11 -12 -24 0
-11 -12 34 0
2 3 4 5 6 7 8 9 10 -11 23 0
2 3 -11 25 0
2 3 4 -11 26 0
2 3 4 5 -11 27 0
2 3 4 5 6 -11 28 0
2 3 4 5 6 7 -11 29 0
2 3 4 5 6 7 8 -11 30 0
2 3 4 5 6 7 8 9 -11 31 0
2 3 4 5 6 7 8 9 10 -11 32 0
2 3 4 5 6 7 8 9 10 -11 -33 0
1 2 3 4 5 6 7 8 9 10 -22 0
1 2 -10 12 24 0
1 2 -10 -12 -24 0
-10 -12 34 0
1 -10 11 23 0
-10 11 -33 0
1 -10 -11 -23 0
-10 -11 33 0
1 2 3 4 5 6 7 8 9 -10 22 0
1 2 3 -10 25 0
1 2 3 4 -10 26 0
1 2 3 4 5 -10 27 0
1 2 3 4 5 6 -10 28 0
1 2 3 4 5 6 7 -10 29 0
1 2 3 4 5 6 7 8 -10 30 0
1 2 3 4 5 6 7 8 9 -10 31 0
1 2 3 4 5 6 7 8 9 -10 -32 0
1 2 3 4 5 6 7 8 9 -21 0
1 2 -9 12 24 0
1 2 -9 -12 -24 0
-9 -12 34 0
1 -9 11 23 0
-9 11 -33 0
1 -9 -11 -23 0
-9 -11 33 0
-9 10 22 0
-9 10 -32 0
-9 -10 -22 0
-9 -10 32 0
1 2 3 4 5 6 7 8 -9 21 0
1 2 3 -9 25 0
1 2 3 4 -9 26 0
1 2 3 4 5 -9 27 0
1 2 3 4 5 6 -9 28 0
1 2 3 4 5 6 7 -9 29 0
1 2 3 4 5 6 7 8 -9 30 0
1 2 3 4 5 6 7 8 -9 -31 0
1 2 3 4 5 6 7 8 -20 0
1 2 -8 12 24 0
1 2 -8 -12 -24 0
-8 -12 34 0
1 -8 11 23 0
-8 11 -33 0
1 -8 -11 -23 0
-8 -11 33 0
-8 10 22 0
-8 10 -32 0
-8 -10 -22 0
-8 -10 32 0
-8 9 21 0
-8 9 -31 0
-8 -9 -21 0
-8 -9 31 0
1 2 3 4 5 6 7 -8 20 0
1 2 3 -8 25 0
1 2 3 4 -8 26 0
1 2 3 4 5 -8 27 0
1 2 3 4 5 6 -8 28 0
1 2 3 4 5 6 7 -8 29 0
1 2 3 4 5 6 7 -8 -30 0
1 2 3 4 5 6 7 -19 0
1 2 -7 12 24 0
1 2 -7 -12 -24 0
-7 -12 34 0
1 -7 11 23 0
-7 11 -33 0
1 -7 -11 -23 0
-7 -11 33 0
-7 10 22 0
-7 10 -32 0
-7 -10 -22 0
-7 -10 32 0
-7 9 21 0
-7 9 -31 0
-7 -9 -21 0
-7 -9 31 0
-7 8 20 0
-7 8 -30 0
-7 -8 -20 0
-7 -8 30 0
1 2 3 4 5 6 -7 19 0
1 2 3 -7 25 0
1 2 3 4 -7 26 0
1 2 3 4 5 -7 27 0
1 2 3 4 5 6 -7 28 0
1 2 3 4 5 6 -7 -29 0
1 2 3 4 5 6 -18 0
1 2 -6 12 24 0
1 2 -6 -12 -24 0
-6 -12 34 0
1 -6 11 23 0
-6 11 -33 0
1 -6 -11 -23 0
-6 -11 33 0
-6 10 22 0
-6 10 -32 0
-6 -10 -22 0
-6 -10 32 0
-6 9 21 0
-6 9 -31 0
-6 -9 -21 0
-6 -9 31 0
-6 8 20 0
-6 8 -30 0
-6 -8 -20 0
-6 -8 30 0
-6 7 19 0
-6 7 -29 0
-6 -7 -19 0
-6 -7 29 0
1 2 3 4 5 -6 18 0
1 2 3 -6 25 0
1 2 3 4 -6 26 0
1 2 3 4 5 -6 27 0
1 2 3 4 5 -6 -28 0
1 2 3 4 5 -17 0
1 2 -5 12 24 0
1 2 -5 -12 -24 0
-5 -12 34 0
1 -5 11 23 0
-5 11 -33 0
1 -5 -11 -23 0
-5 -11 33 0
-5 10 22 0
-5 10 -32 0
-5 -10 -22 0
-5 -10 32 0
-5 9 21 0
-5 9 -31 0
-5 -9 -21 0
-5 -9 31 0
-5 8 20 0
-5 8 -30 0
-5 -8 -20 0
-5 -8 30 0
-5 7 19 0
-5 7 -29 0
-5 -7 -19 0
-5 -7 29 0
-5 6 18 0
-5 6 -28 0
-5 -6 -18 0
-5 -6 28 0
1 2 3 4 -5 17 0
1 2 3 -5 25 0
1 2 3 4 -5 26 0
1 2 3 4 -5 -27 0
1 2 3 4 -16 0
1 2 -4 12 24 0
1 2 -4 -12 -24 0
-4 -12 34 0
1 -4 11 23 0
-4 11 -33 0
1 -4 -11 -23 0
-4 -11 33 0
-4 10 22 0
-4 10 -32 0
-4 -10 -22 0
-4 -10 32 0
-4 9 21 0
-4 9 -31 0
-4 -9 -21 0
-4 -9 31 0
-4 8 20 0
-4 8 -30 0
-4 -8 -20 0
-4 -8 30 0
-4 7 19 0
-4 7 -29 0
-4 -7 -19 0
-4 -7 29 0
-4 6 18 0
-4 6 -28 0
-4 -6 -18 0
-4 -6 28 0
-4 5 17 0
-4 5 -27 0
-4 -5 -17 0
-4 -5 27 0
1 2 3 -4 16 0
1 2 3 -4 25 0
1 2 3 -4 -26 0
1 2 3 -15 0
1 2 -3 12 24 0
1 2 -3 -12 -24 0
-3 -12 34 0
1 -3 11 23 0
-3 11 -33 0
1 -3 -11 -23 0
-3 -11 33 0
-3 10 22 0
-3 10 -32 0
-3 -10 -22 0
-3 -10 32 0
-3 9 21 0
-3 9 -31 0
-3 -9 -21 0
-3 -9 31 0
-3 8 20 0
-3 8 -30 0
-3 -8 -20 0
-3 -8 30 0
-3 7 19 0
-3 7 -29 0
-3 -7 -19 0
-3 -7 29 0
-3 6 18 0
-3 6 -28 0
-3 -6 -18 0
-3 -6 28 0
-3 5 17 0
-3 5 -27 0
-3 -5 -17 0
-3 -5 27 0
-3 4 16 0
-3 4 -26 0
-3 -4 -16 0
-3 -4 26 0
1 2 -3 15 0
1 2 -3 -25 0
1 2 -14 0
1 -2 12 -24 0
-2 3 12 -25 0
-2 4 12 -26 0
-2 5 12 -27 0
-2 6 12 -28 0
-2 7 12 -29 0
-2 8 12 -30 0
-2 9 12 -31 0
-2 10 12 -32 0
-2 11 12 -33 0
1 -2 -12 24 0
1 -2 11 23 0
-2 -11 12 33 0
1 3 4 5 6 7 8 9 10 -11 -12 -33 0
1 -2 -11 -23 0
-2 10 22 0
-2 -10 12 32 0
1 3 4 5 6 7 8 9 -10 -12 -32 0
-2 -10 -22 0
-2 9 21 0
-2 -9 12 31 0
1 3 4 5 6 7 8 -9 -12 -31 0
-2 -9 -21 0
-2 8 20 0
-2 -8 12 30 0
1 3 4 5 6 7 -8 -12 -30 0
-2 -8 -20 0
-2 7 19 0
-2 -7 12 29 0
1 3 4 5 6 -7 -12 -29 0
-2 -7 -19 0
-2 6 18 0
-2 -6 12 28 0
1 3 4 5 -6 -12 -28 0
-2 -6 -18 0
-2 5 17 0
-2 -5 12 27 0
1 3 4 -5 -12 -27 0
-2 -5 -17 0
-2 4 16 0
-2 -4 12 26 0
1 3 -4 -12 -26 0
-2 -4 -16 0
-2 3 15 0
-2 -3 12 25 0
1 -3 -12 -25 0
-2 -3 -15 0
1 -2 14 0
1 -13 0
-1 2 11 12 -24 0
-1 3 11 12 -25 0
-1 4 11 12 -26 0
-1 5 11 12 -27 0
-1 6 11 12 -28 0
-1 7 11 12 -29 0
-1 8 11 12 -30 0
-1 9 11 12 -31 0
-1 10 11 12 -32 0
-1 2 11 -12 24 0
2 3 -12 25 0
2 3 4 -12 26 0
2 3 4 5 -12 27 0
2 3 4 5 6 -12 28 0
2 3 4 5 6 7 -12 29 0
2 3 4 5 6 7 8 -12 30 0
2 3 4 5 6 7 8 9 -12 31 0
2 3 4 5 6 7 8 9 10 -12 32 0
2 3 4 5 6 7 8 9 10 11 -12 33 0
-1 11 -23 0
2 3 4 5 6 7 8 9 10 11 -34 0
-1 -11 23 0
-1 10 22 0
-1 -10 11 12 32 0
2 3 4 5 6 7 8 9 -10 -12 -32 0
2 3 4 5 6 7 8 9 -10 -11 -32 0
-1 -10 -22 0
-1 9 21 0
-1 -9 11 12 31 0
2 3 4 5 6 7 8 -9 -12 -31 0
2 3 4 5 6 7 8 -9 -11 -31 0
-1 -9 -21 0
-1 8 20 0
-1 -8 11 12 30 0
2 3 4 5 6 7 -8 -12 -30 0
2 3 4 5 6 7 -8 -11 -30 0
-1 -8 -20 0
-1 7 19 0
-1 -7 11 12 29 0
2 3 4 5 6 -7 -12 -29 0
2 3 4 5 6 -7 -11 -29 0
-1 -7 -19 0
-1 6 18 0
-1 -6 11 12 28 0
2 3 4 5 -6 -12 -28 0
2 3 4 5 -6 -11 -28 0
-1 -6 -18 0
-1 5 17 0
-1 -5 11 12 27 0
2 3 4 -5 -12 -27 0
2 3 4 -5 -11 -27 0
-1 -5 -17 0
-1 4 16 0
-1 -4 11 12 26 0
2 3 -4 -12 -26 0
2 3 -4 -11 -26 0
-1 -4 -16 0
-1 3 15 0
-1 -3 11 12 25 0
2 -3 -12 -25 0
2 -3 -11 -25 0
-1 -3 -15 0
-1 2 14 0
-1 -2 11 12 24 0
-1 -2 11 -12 -24 0
-1 -2 -12 34 0
-1 -2 3 11 -25 0
-1 -2 4 11 -26 0
-1 -2 5 11 -27 0
-1 -2 6 11 -28 0
-1 -2 7 11 -29 0
-1 -2 8 11 -30 0
-1 -2 9 11 -31 0
-1 -2 10 11 -32 0
-1 -2 11 -33 0
-2 -11 12 -24 0
-2 -11 -12 24 0
3 -11 -12 25 0
3 4 -11 -12 26 0
3 4 5 -11 -12 27 0
3 4 5 6 -11 -12 28 0
3 4 5 6 7 -11 -12 29 0
3 4 5 6 7 8 -11 -12 30 0
3 4 5 6 7 8 9 -11 -12 31 0
3 4 5 6 7 8 9 10 -11 -12 32 0
-1 -2 3 4 5 6 7 8 9 10 -12 -33 0
-1 -2 -10 11 32 0
3 4 5 6 7 8 9 -10 -11 -12 -32 0
-1 -2 -9 11 31 0
3 4 5 6 7 8 -9 -11 -12 -31 0
-1 -2 -8 11 30 0
3 4 5 6 7 -8 -11 -12 -30 0
-1 -2 -7 11 29 0
3 4 5 6 -7 -11 -12 -29 0
-1 -2 -6 11 28 0
3 4 5 -6 -11 -12 -28 0
-1 -2 -5 11 27 0
3 4 -5 -11 -12 -27 0
-1 -2 -4 11 26 0
3 -4 -11 -12 -26 0
-1 -2 -3 11 25 0
-3 -11 -12 -25 0
-1 -2 -14 0
-1 13 0
